p edge 400 1042
e 1 2 1
e 1 400 1
e 1 3 1
e 1 399 1
e 1 350 1
e 2 3 1
e 2 4 1
e 2 400 1
e 2 96 1
e 2 101 1
e 3 4 1
e 3 5 1
e 3 121 1
e 3 190 1
e 3 312 1
e 4 5 1
e 4 6 1
e 4 25 1
e 4 61 1
e 5 6 1
e 5 7 1
e 5 93 1
e 5 107 1
e 5 212 1
e 6 7 1
e 6 8 1
e 6 266 1
e 7 8 1
e 7 9 1
e 7 132 1
e 8 9 1
e 8 10 1
e 9 10 1
e 9 11 1
e 9 168 1
e 9 157 1
e 9 389 1
e 10 11 1
e 10 12 1
e 10 339 1
e 10 159 1
e 11 12 1
e 11 13 1
e 12 13 1
e 12 14 1
e 13 14 1
e 13 15 1
e 13 150 1
e 13 360 1
e 13 388 1
e 14 15 1
e 14 16 1
e 14 128 1
e 14 73 1
e 14 376 1
e 15 16 1
e 15 17 1
e 15 219 1
e 16 17 1
e 16 18 1
e 17 18 1
e 17 19 1
e 18 19 1
e 18 20 1
e 18 147 1
e 19 20 1
e 19 21 1
e 19 73 1
e 20 21 1
e 20 22 1
e 20 362 1
e 21 22 1
e 21 23 1
e 21 229 1
e 22 23 1
e 22 24 1
e 22 392 1
e 22 256 1
e 23 24 1
e 23 25 1
e 23 178 1
e 23 361 1
e 24 25 1
e 24 26 1
e 24 42 1
e 24 310 1
e 24 366 1
e 25 26 1
e 25 27 1
e 26 27 1
e 26 28 1
e 26 276 1
e 27 28 1
e 27 29 1
e 28 29 1
e 28 30 1
e 28 278 1
e 28 289 1
e 29 30 1
e 29 31 1
e 29 152 1
e 30 31 1
e 30 32 1
e 30 39 1
e 31 32 1
e 31 33 1
e 32 33 1
e 32 34 1
e 32 358 1
e 32 395 1
e 33 34 1
e 33 35 1
e 33 376 1
e 34 35 1
e 34 36 1
e 34 46 1
e 35 36 1
e 35 37 1
e 35 249 1
e 36 37 1
e 36 38 1
e 36 331 1
e 37 38 1
e 37 39 1
e 37 385 1
e 38 39 1
e 38 40 1
e 38 108 1
e 39 40 1
e 39 41 1
e 40 41 1
e 40 42 1
e 41 42 1
e 41 43 1
e 42 43 1
e 42 44 1
e 42 249 1
e 43 44 1
e 43 45 1
e 43 73 1
e 44 45 1
e 44 46 1
e 44 288 1
e 44 146 1
e 45 46 1
e 45 47 1
e 45 115 1
e 45 194 1
e 45 87 1
e 46 47 1
e 46 48 1
e 46 210 1
e 47 48 1
e 47 49 1
e 47 315 1
e 48 49 1
e 48 50 1
e 48 362 1
e 49 50 1
e 49 51 1
e 50 51 1
e 50 52 1
e 51 52 1
e 51 53 1
e 51 310 1
e 52 53 1
e 52 54 1
e 52 142 1
e 53 54 1
e 53 55 1
e 54 55 1
e 54 56 1
e 54 343 1
e 55 56 1
e 55 57 1
e 55 280 1
e 55 212 1
e 56 57 1
e 56 58 1
e 56 308 1
e 57 58 1
e 57 59 1
e 57 376 1
e 57 273 1
e 58 59 1
e 58 60 1
e 58 133 1
e 58 236 1
e 59 60 1
e 59 61 1
e 59 366 1
e 59 263 1
e 59 178 1
e 60 61 1
e 60 62 1
e 60 227 1
e 61 62 1
e 61 63 1
e 62 63 1
e 62 64 1
e 62 227 1
e 63 64 1
e 63 65 1
e 63 253 1
e 64 65 1
e 64 66 1
e 64 226 1
e 64 331 1
e 64 335 1
e 65 66 1
e 65 67 1
e 66 67 1
e 66 68 1
e 66 77 1
e 66 163 1
e 67 68 1
e 67 69 1
e 68 69 1
e 68 70 1
e 68 157 1
e 68 367 1
e 69 70 1
e 69 71 1
e 69 261 1
e 69 322 1
e 70 71 1
e 70 72 1
e 70 99 1
e 71 72 1
e 71 73 1
e 72 73 1
e 72 74 1
e 72 334 1
e 73 74 1
e 73 75 1
e 73 318 1
e 74 75 1
e 74 76 1
e 74 347 1
e 74 243 1
e 75 76 1
e 75 77 1
e 75 287 1
e 76 77 1
e 76 78 1
e 77 78 1
e 77 79 1
e 78 79 1
e 78 80 1
e 78 193 1
e 79 80 1
e 79 81 1
e 80 81 1
e 80 82 1
e 81 82 1
e 81 83 1
e 81 195 1
e 82 83 1
e 82 84 1
e 82 141 1
e 82 258 1
e 83 84 1
e 83 85 1
e 83 89 1
e 84 85 1
e 84 86 1
e 85 86 1
e 85 87 1
e 85 217 1
e 86 87 1
e 86 88 1
e 87 88 1
e 87 89 1
e 88 89 1
e 88 90 1
e 89 90 1
e 89 91 1
e 89 327 1
e 90 91 1
e 90 92 1
e 90 322 1
e 91 92 1
e 91 93 1
e 92 93 1
e 92 94 1
e 92 116 1
e 93 94 1
e 93 95 1
e 93 257 1
e 94 95 1
e 94 96 1
e 94 217 1
e 94 181 1
e 94 378 1
e 95 96 1
e 95 97 1
e 96 97 1
e 96 98 1
e 97 98 1
e 97 99 1
e 97 355 1
e 98 99 1
e 98 100 1
e 98 271 1
e 99 100 1
e 99 101 1
e 100 101 1
e 100 102 1
e 101 102 1
e 101 103 1
e 102 103 1
e 102 104 1
e 103 104 1
e 103 105 1
e 103 281 1
e 104 105 1
e 104 106 1
e 105 106 1
e 105 107 1
e 105 194 1
e 105 173 1
e 105 379 1
e 106 107 1
e 106 108 1
e 107 108 1
e 107 109 1
e 108 109 1
e 108 110 1
e 109 110 1
e 109 111 1
e 109 393 1
e 110 111 1
e 110 112 1
e 111 112 1
e 111 113 1
e 111 384 1
e 112 113 1
e 112 114 1
e 112 377 1
e 113 114 1
e 113 115 1
e 113 267 1
e 113 179 1
e 114 115 1
e 114 116 1
e 115 116 1
e 115 117 1
e 115 217 1
e 116 117 1
e 116 118 1
e 117 118 1
e 117 119 1
e 117 219 1
e 118 119 1
e 118 120 1
e 118 349 1
e 119 120 1
e 119 121 1
e 119 398 1
e 120 121 1
e 120 122 1
e 120 180 1
e 121 122 1
e 121 123 1
e 121 358 1
e 122 123 1
e 122 124 1
e 122 129 1
e 122 176 1
e 123 124 1
e 123 125 1
e 124 125 1
e 124 126 1
e 124 270 1
e 125 126 1
e 125 127 1
e 126 127 1
e 126 128 1
e 126 395 1
e 127 128 1
e 127 129 1
e 128 129 1
e 128 130 1
e 129 130 1
e 129 131 1
e 129 277 1
e 130 131 1
e 130 132 1
e 130 336 1
e 131 132 1
e 131 133 1
e 132 133 1
e 132 134 1
e 133 134 1
e 133 135 1
e 134 135 1
e 134 136 1
e 134 172 1
e 135 136 1
e 135 137 1
e 136 137 1
e 136 138 1
e 137 138 1
e 137 139 1
e 137 280 1
e 138 139 1
e 138 140 1
e 139 140 1
e 139 141 1
e 140 141 1
e 140 142 1
e 140 362 1
e 141 142 1
e 141 143 1
e 142 143 1
e 142 144 1
e 142 286 1
e 143 144 1
e 143 145 1
e 144 145 1
e 144 146 1
e 144 311 1
e 145 146 1
e 145 147 1
e 145 175 1
e 146 147 1
e 146 148 1
e 146 257 1
e 146 389 1
e 147 148 1
e 147 149 1
e 147 396 1
e 147 327 1
e 148 149 1
e 148 150 1
e 148 308 1
e 149 150 1
e 149 151 1
e 149 394 1
e 150 151 1
e 150 152 1
e 150 240 1
e 151 152 1
e 151 153 1
e 152 153 1
e 152 154 1
e 153 154 1
e 153 155 1
e 153 309 1
e 153 351 1
e 154 155 1
e 154 156 1
e 154 337 1
e 154 199 1
e 155 156 1
e 155 157 1
e 156 157 1
e 156 158 1
e 156 257 1
e 156 354 1
e 157 158 1
e 157 159 1
e 157 219 1
e 158 159 1
e 158 160 1
e 159 160 1
e 159 161 1
e 159 386 1
e 159 378 1
e 160 161 1
e 160 162 1
e 160 375 1
e 161 162 1
e 161 163 1
e 162 163 1
e 162 164 1
e 163 164 1
e 163 165 1
e 163 269 1
e 163 217 1
e 163 339 1
e 164 165 1
e 164 166 1
e 164 320 1
e 165 166 1
e 165 167 1
e 166 167 1
e 166 168 1
e 166 245 1
e 166 248 1
e 167 168 1
e 167 169 1
e 168 169 1
e 168 170 1
e 169 170 1
e 169 171 1
e 170 171 1
e 170 172 1
e 170 239 1
e 171 172 1
e 171 173 1
e 172 173 1
e 172 174 1
e 173 174 1
e 173 175 1
e 174 175 1
e 174 176 1
e 175 176 1
e 175 177 1
e 176 177 1
e 176 178 1
e 177 178 1
e 177 179 1
e 178 179 1
e 178 180 1
e 178 299 1
e 178 385 1
e 178 397 1
e 179 180 1
e 179 181 1
e 179 195 1
e 180 181 1
e 180 182 1
e 180 224 1
e 180 240 1
e 181 182 1
e 181 183 1
e 182 183 1
e 182 184 1
e 183 184 1
e 183 185 1
e 184 185 1
e 184 186 1
e 184 373 1
e 185 186 1
e 185 187 1
e 185 279 1
e 185 322 1
e 186 187 1
e 186 188 1
e 187 188 1
e 187 189 1
e 188 189 1
e 188 190 1
e 188 251 1
e 188 193 1
e 189 190 1
e 189 191 1
e 190 191 1
e 190 192 1
e 191 192 1
e 191 193 1
e 191 400 1
e 192 193 1
e 192 194 1
e 192 291 1
e 192 199 1
e 193 194 1
e 193 195 1
e 193 234 1
e 194 195 1
e 194 196 1
e 195 196 1
e 195 197 1
e 196 197 1
e 196 198 1
e 196 370 1
e 197 198 1
e 197 199 1
e 198 199 1
e 198 200 1
e 199 200 1
e 199 201 1
e 200 201 1
e 200 202 1
e 201 202 1
e 201 203 1
e 201 217 1
e 201 348 1
e 201 363 1
e 202 203 1
e 202 204 1
e 203 204 1
e 203 205 1
e 204 205 1
e 204 206 1
e 204 387 1
e 205 206 1
e 205 207 1
e 205 234 1
e 206 207 1
e 206 208 1
e 207 208 1
e 207 209 1
e 208 209 1
e 208 210 1
e 208 380 1
e 208 392 1
e 209 210 1
e 209 211 1
e 209 320 1
e 210 211 1
e 210 212 1
e 210 348 1
e 211 212 1
e 211 213 1
e 211 215 1
e 212 213 1
e 212 214 1
e 212 262 1
e 212 326 1
e 212 335 1
e 213 214 1
e 213 215 1
e 214 215 1
e 214 216 1
e 215 216 1
e 215 217 1
e 215 347 1
e 216 217 1
e 216 218 1
e 217 218 1
e 217 219 1
e 218 219 1
e 218 220 1
e 219 220 1
e 219 221 1
e 220 221 1
e 220 222 1
e 221 222 1
e 221 223 1
e 222 223 1
e 222 224 1
e 222 246 1
e 223 224 1
e 223 225 1
e 223 280 1
e 223 301 1
e 224 225 1
e 224 226 1
e 225 226 1
e 225 227 1
e 225 382 1
e 226 227 1
e 226 228 1
e 227 228 1
e 227 229 1
e 227 278 1
e 228 229 1
e 228 230 1
e 229 230 1
e 229 231 1
e 230 231 1
e 230 232 1
e 231 232 1
e 231 233 1
e 231 377 1
e 232 233 1
e 232 234 1
e 232 288 1
e 233 234 1
e 233 235 1
e 233 296 1
e 234 235 1
e 234 236 1
e 235 236 1
e 235 237 1
e 236 237 1
e 236 238 1
e 237 238 1
e 237 239 1
e 237 355 1
e 238 239 1
e 238 240 1
e 239 240 1
e 239 241 1
e 240 241 1
e 240 242 1
e 240 302 1
e 240 330 1
e 241 242 1
e 241 243 1
e 241 311 1
e 242 243 1
e 242 244 1
e 243 244 1
e 243 245 1
e 243 278 1
e 244 245 1
e 244 246 1
e 244 249 1
e 244 311 1
e 244 247 1
e 245 246 1
e 245 247 1
e 246 247 1
e 246 248 1
e 247 248 1
e 247 249 1
e 247 397 1
e 248 249 1
e 248 250 1
e 249 250 1
e 249 251 1
e 249 326 1
e 249 337 1
e 250 251 1
e 250 252 1
e 251 252 1
e 251 253 1
e 252 253 1
e 252 254 1
e 253 254 1
e 253 255 1
e 253 294 1
e 254 255 1
e 254 256 1
e 254 345 1
e 255 256 1
e 255 257 1
e 255 332 1
e 256 257 1
e 256 258 1
e 257 258 1
e 257 259 1
e 258 259 1
e 258 260 1
e 259 260 1
e 259 261 1
e 259 333 1
e 259 383 1
e 260 261 1
e 260 262 1
e 260 313 1
e 260 342 1
e 261 262 1
e 261 263 1
e 262 263 1
e 262 264 1
e 262 311 1
e 263 264 1
e 263 265 1
e 264 265 1
e 264 266 1
e 265 266 1
e 265 267 1
e 266 267 1
e 266 268 1
e 267 268 1
e 267 269 1
e 268 269 1
e 268 270 1
e 268 379 1
e 269 270 1
e 269 271 1
e 270 271 1
e 270 272 1
e 271 272 1
e 271 273 1
e 272 273 1
e 272 274 1
e 273 274 1
e 273 275 1
e 274 275 1
e 274 276 1
e 275 276 1
e 275 277 1
e 276 277 1
e 276 278 1
e 277 278 1
e 277 279 1
e 277 357 1
e 277 284 1
e 277 381 1
e 278 279 1
e 278 280 1
e 279 280 1
e 279 281 1
e 279 367 1
e 280 281 1
e 280 282 1
e 281 282 1
e 281 283 1
e 281 369 1
e 282 283 1
e 282 284 1
e 283 284 1
e 283 285 1
e 283 316 1
e 284 285 1
e 284 286 1
e 285 286 1
e 285 287 1
e 286 287 1
e 286 288 1
e 286 346 1
e 286 309 1
e 287 288 1
e 287 289 1
e 288 289 1
e 288 290 1
e 288 349 1
e 288 337 1
e 289 290 1
e 289 291 1
e 290 291 1
e 290 292 1
e 291 292 1
e 291 293 1
e 292 293 1
e 292 294 1
e 293 294 1
e 293 295 1
e 294 295 1
e 294 296 1
e 295 296 1
e 295 297 1
e 296 297 1
e 296 298 1
e 297 298 1
e 297 299 1
e 298 299 1
e 298 300 1
e 299 300 1
e 299 301 1
e 300 301 1
e 300 302 1
e 300 358 1
e 300 344 1
e 301 302 1
e 301 303 1
e 302 303 1
e 302 304 1
e 302 369 1
e 303 304 1
e 303 305 1
e 303 379 1
e 304 305 1
e 304 306 1
e 305 306 1
e 305 307 1
e 305 386 1
e 306 307 1
e 306 308 1
e 307 308 1
e 307 309 1
e 308 309 1
e 308 310 1
e 309 310 1
e 309 311 1
e 309 326 1
e 310 311 1
e 310 312 1
e 311 312 1
e 311 313 1
e 312 313 1
e 312 314 1
e 313 314 1
e 313 315 1
e 313 391 1
e 314 315 1
e 314 316 1
e 315 316 1
e 315 317 1
e 316 317 1
e 316 318 1
e 316 346 1
e 317 318 1
e 317 319 1
e 317 342 1
e 318 319 1
e 318 320 1
e 319 320 1
e 319 321 1
e 320 321 1
e 320 322 1
e 320 368 1
e 321 322 1
e 321 323 1
e 321 387 1
e 322 323 1
e 322 324 1
e 323 324 1
e 323 325 1
e 324 325 1
e 324 326 1
e 325 326 1
e 325 327 1
e 326 327 1
e 326 328 1
e 327 328 1
e 327 329 1
e 328 329 1
e 328 330 1
e 328 354 1
e 328 394 1
e 329 330 1
e 329 331 1
e 330 331 1
e 330 332 1
e 331 332 1
e 331 333 1
e 331 397 1
e 332 333 1
e 332 334 1
e 333 334 1
e 333 335 1
e 334 335 1
e 334 336 1
e 335 336 1
e 335 337 1
e 336 337 1
e 336 338 1
e 337 338 1
e 337 339 1
e 338 339 1
e 338 340 1
e 339 340 1
e 339 341 1
e 340 341 1
e 340 342 1
e 341 342 1
e 341 343 1
e 342 343 1
e 342 344 1
e 343 344 1
e 343 345 1
e 344 345 1
e 344 346 1
e 345 346 1
e 345 347 1
e 346 347 1
e 346 348 1
e 347 348 1
e 347 349 1
e 348 349 1
e 348 350 1
e 348 390 1
e 349 350 1
e 349 351 1
e 350 351 1
e 350 352 1
e 351 352 1
e 351 353 1
e 352 353 1
e 352 354 1
e 353 354 1
e 353 355 1
e 354 355 1
e 354 356 1
e 355 356 1
e 355 357 1
e 356 357 1
e 356 358 1
e 356 375 1
e 357 358 1
e 357 359 1
e 358 359 1
e 358 360 1
e 359 360 1
e 359 361 1
e 360 361 1
e 360 362 1
e 360 370 1
e 361 362 1
e 361 363 1
e 362 363 1
e 362 364 1
e 363 364 1
e 363 365 1
e 364 365 1
e 364 366 1
e 365 366 1
e 365 367 1
e 365 372 1
e 366 367 1
e 366 368 1
e 367 368 1
e 367 369 1
e 368 369 1
e 368 370 1
e 369 370 1
e 369 371 1
e 370 371 1
e 370 372 1
e 371 372 1
e 371 373 1
e 372 373 1
e 372 374 1
e 373 374 1
e 373 375 1
e 374 375 1
e 374 376 1
e 375 376 1
e 375 377 1
e 376 377 1
e 376 378 1
e 377 378 1
e 377 379 1
e 378 379 1
e 378 380 1
e 379 380 1
e 379 381 1
e 380 381 1
e 380 382 1
e 381 382 1
e 381 383 1
e 382 383 1
e 382 384 1
e 383 384 1
e 383 385 1
e 384 385 1
e 384 386 1
e 385 386 1
e 385 387 1
e 386 387 1
e 386 388 1
e 387 388 1
e 387 389 1
e 388 389 1
e 388 390 1
e 389 390 1
e 389 391 1
e 390 391 1
e 390 392 1
e 391 392 1
e 391 393 1
e 392 393 1
e 392 394 1
e 393 394 1
e 393 395 1
e 394 395 1
e 394 396 1
e 395 396 1
e 395 397 1
e 396 397 1
e 396 398 1
e 397 398 1
e 397 399 1
e 398 399 1
e 398 400 1
e 399 400 1